p cnf 14 21
-14 -13 -9 0
-14 12 4 0
-14 -10 1 0
13 -9 7 0
-13 5 -4 0
-13 2 -1 0
12 -10 -5 0
12 -10 -1 0
-12 -9 5 0
12 8 7 0
12 8 4 0
11 8 -6 0
-11 8 2 0
11 5 -2 0
10 -9 4 0
-9 -8 -2 0
-9 -6 2 0
8 -3 -2 0
8 2 1 0
-6 4 3 0
-5 3 -1 0
